# Objective value = 3.0371040273469708e+02
x[0] 1
x[1] 1
x[2] 1
x[3] 1
x[4] 1
x[5] 1
x[6] 1
x[7] 1
x[8] 1
x[9] 0
x[10] 1
x[11] 0
x[12] 0
x[13] 0
x[14] 0
x[15] 1
x[16] 1
x[17] 0
x[18] 0
x[19] 0
x[20] 0
x[21] 0
x[22] 1
x[23] 1
x[24] 0
x[25] 1
x[26] 1
x[27] 0
x[28] 1
x[29] 0
x[30] 0
x[31] 1
x[32] 0
x[33] 1
x[34] 0
x[35] 1
x[36] 0
x[37] 1
x[38] 0
x[39] 0
x[40] 1
x[41] 0
x[42] 1
x[43] 1
x[44] 1
x[45] 1
x[46] 0
x[47] 0
x[48] 1
x[49] 1
x[50] 1
x[51] 0
x[52] 0
x[53] 1
x[54] 1
x[55] 1
x[56] 0
x[57] 0
x[58] 1
x[59] 1
x[60] 1
x[61] 0
x[62] 0
x[63] 0
x[64] 1
x[65] 1
x[66] 1
x[67] 0
x[68] 0
x[69] 0
x[70] 1
x[71] 1
x[72] 1
x[73] 1
x[74] 1
x[75] 1
x[76] 0
x[77] 0
x[78] 0
x[79] 0
x[80] 1
x[81] 1
x[82] 1
x[83] 1
x[84] 1
x[85] 0
x[86] 0
x[87] 1
x[88] 0
x[89] 0
x[90] 0
x[91] 1
x[92] 1
x[93] 1
x[94] 0
x[95] 1
x[96] 0
x[97] 0
x[98] 0
x[99] 0
x[100] 1
x[101] 0
x[102] 1
x[103] 0
x[104] 0
x[105] 0
x[106] 0
x[107] 0
x[108] 1
x[109] 0
x[110] 0
x[111] 0
x[112] 0
x[113] 1
x[114] 1
x[115] 1
x[116] 0
x[117] 1
x[118] 0
x[119] 0
x[120] 1
x[121] 1
x[122] 1
x[123] 1
x[124] 0
x[125] 1
x[126] 0
x[127] 0
x[128] 1
x[129] 0
x[130] 0
x[131] 0
x[132] 0
x[133] 0
x[134] 0
x[135] 0
x[136] 1
x[137] 0
x[138] 1
x[139] 0
x[140] 1
x[141] 0
x[142] 1
x[143] 1
x[144] 0
x[145] 0
x[146] 0
x[147] 1
x[148] 1
x[149] 1
x[150] 0
x[151] 0
x[152] 1
x[153] 0
x[154] 1
x[155] 0
x[156] 1
x[157] 0
x[158] 0
x[159] 1
x[160] 0
x[161] 1
x[162] 0
x[163] 0
x[164] 1
x[165] 0
x[166] 1
x[167] 1
x[168] 0
x[169] 1
x[170] 1
x[171] 1
x[172] 0
x[173] 0
x[174] 0
x[175] 1
x[176] 1
x[177] 1
x[178] 1
x[179] 0
x[180] 0
x[181] 1
x[182] 1
x[183] 0
x[184] 0
x[185] 0
x[186] 0
x[187] 1
x[188] 1
x[189] 1
x[190] 0
x[191] 1
x[192] 0
x[193] 1
x[194] 1
x[195] 0
x[196] 0
x[197] 1
x[198] 1
x[199] 1
x[200] 1
x[201] 1
x[202] 0
x[203] 1
x[204] 1
x[205] 1
x[206] 1
x[207] 0
x[208] 0
x[209] 1
x[210] 0
x[211] 0
x[212] 1
x[213] 1
x[214] 1
x[215] 0
x[216] 0
x[217] 0
x[218] 0
x[219] 0
x[220] 0
x[221] 1
x[222] 1
x[223] 1
x[224] 1
x[225] 1
x[226] 1
x[227] 1
x[228] 1
x[229] 0
x[230] 0
x[231] 1
x[232] 0
x[233] 1
x[234] 1
x[235] 0
x[236] 1
x[237] 1
x[238] 1
x[239] 1
x[240] 1
x[241] 1
x[242] 1
x[243] 1
x[244] 0
x[245] 1
x[246] 0
x[247] 1
x[248] 0
x[249] 0
x[250] 0
x[251] 0
x[252] 0
x[253] 1
x[254] 1
x[255] 0
x[256] 0
x[257] 1
x[258] 0
x[259] 1
x[260] 1
x[261] 0
x[262] 0
x[263] 1
x[264] 1
x[265] 1
x[266] 1
x[267] 1
x[268] 1
x[269] 1
x[270] 0
x[271] 0
x[272] 1
x[273] 1
x[274] 1
x[275] 0
x[276] 0
x[277] 0
x[278] 0
x[279] 1
x[280] 0
x[281] 0
x[282] 0
x[283] 1
x[284] 1
x[285] 0
x[286] 1
x[287] 0
x[288] 0
x[289] 0
x[290] 0
x[291] 1
x[292] 0
x[293] 0
x[294] 1
x[295] 0
x[296] 0
x[297] 1
x[298] 1
x[299] 1
x[300] 0
x[301] 0
x[302] 0
x[303] 0
x[304] 0
x[305] 0
x[306] 0
x[307] 1
x[308] 0
x[309] 0
x[310] 0
x[311] 1
x[312] 1
x[313] 0
x[314] 1
x[315] 1
x[316] 1
x[317] 0
x[318] 1
x[319] 1
x[320] 1
x[321] 0
x[322] 0
x[323] 0
x[324] 0
x[325] 1
x[326] 0
x[327] 0
x[328] 1
x[329] 0
x[330] 1
x[331] 0
x[332] 1
x[333] 0
x[334] 0
x[335] 0
x[336] 1
x[337] 0
x[338] 1
x[339] 1
x[340] 0
x[341] 1
x[342] 1
x[343] 0
x[344] 0
x[345] 0
x[346] 0
x[347] 1
x[348] 0
x[349] 1
x[350] 1
x[351] 1
x[352] 1
x[353] 0
x[354] 1
x[355] 0
x[356] 1
x[357] 0
x[358] 1
x[359] 0
x[360] 0
x[361] 1
x[362] 0
x[363] 1
x[364] 0
x[365] 0
x[366] 1
x[367] 0
x[368] 0
x[369] 0
x[370] 0
x[371] 1
x[372] 1
x[373] 1
x[374] 0
x[375] 0
x[376] 0
x[377] 0
x[378] 1
x[379] 1
x[380] 0
x[381] 0
x[382] 0
x[383] 1
x[384] 0
x[385] 0
x[386] 1
x[387] 1
x[388] 1
x[389] 1
x[390] 0
x[391] 0
x[392] 1
x[393] 0
x[394] 0
x[395] 0
x[396] 1
x[397] 0
x[398] 0
x[399] 0
x[400] 1
x[401] 0
x[402] 0
x[403] 0
x[404] 0
x[405] 0
x[406] 1
x[407] 0
x[408] 0
x[409] 1
x[410] 0
x[411] 0
x[412] 0
x[413] 0
x[414] 0
x[415] 1
x[416] 5.7520664396879772e-07
x[417] 1
x[418] 1
x[419] 0
x[420] 1
x[421] 1
x[422] 0
x[423] 1
x[424] 0
x[425] 0
x[426] 1
x[427] 1
x[428] 0
x[429] 0
x[430] 1
x[431] 0
x[432] 1
x[433] 1
x[434] 1
x[435] 0
x[436] 1
x[437] 0
x[438] 0
x[439] 1
x[440] 1
x[441] 1
x[442] 1
x[443] 0
x[444] 1
x[445] 1
x[446] 1
x[447] 0
x[448] 0
x[449] 0
x[450] 0
x[451] 1
x[452] 0
x[453] 1
x[454] 1
x[455] 0
x[456] 1
x[457] 1
x[458] 1
x[459] 1
x[460] 1
x[461] 1
x[462] 1
x[463] 0
x[464] 1
x[465] 1
x[466] 1
x[467] 0
x[468] 0
x[469] 0
x[470] 0
x[471] 1
x[472] 0
x[473] 1
x[474] 1
x[475] 1
x[476] 1
x[477] 1
x[478] 0
x[479] 0
x[480] 0
x[481] 1
x[482] 1
x[483] 0
x[484] 1
x[485] 0
x[486] 1
x[487] 1
x[488] 1
x[489] 0
x[490] 1
x[491] 0
x[492] 1
x[493] 1
x[494] 0
x[495] 1
x[496] 0
x[497] 1
x[498] 1
x[499] 1
x[500] 0
x[501] 1
x[502] 1
x[503] 0
x[504] 0
x[505] 1
x[506] 1
x[507] 0
x[508] 0
x[509] 1
x[510] 0
x[511] 0
x[512] 0
x[513] 0
x[514] 1
x[515] 0
x[516] 1
x[517] 0
x[518] 1
x[519] 0
x[520] 1
x[521] 1
x[522] 1
x[523] 0
x[524] 1
x[525] 0
x[526] 1
x[527] 0
x[528] 1
x[529] 1
x[530] 1
x[531] 0
x[532] 0
x[533] 0
x[534] 0
x[535] 0
x[536] 1
x[537] 0
x[538] 1
x[539] 1
x[540] 0
x[541] 1
x[542] 1
x[543] 1
x[544] 1
x[545] 0
x[546] 0
x[547] 1
x[548] 1
x[549] 0
x[550] 1
x[551] 0
x[552] 0
x[553] 0
x[554] 0
x[555] 0
x[556] 1
x[557] 0
x[558] 1
x[559] 1
x[560] 1
x[561] 1
x[562] 1
x[563] 0
x[564] 1
x[565] 0
x[566] 0
x[567] 0
x[568] 1
x[569] 0
x[570] 0
x[571] 0
x[572] 0
x[573] 1
x[574] 1
x[575] 0
x[576] 1
x[577] 1
x[578] 0
x[579] 0
x[580] 1
x[581] 1
x[582] 0
x[583] 1
x[584] 0
x[585] 1
x[586] 0
x[587] 0
x[588] 0
x[589] 1
x[590] 1
x[591] 0
x[592] 1
x[593] 1
x[594] 1
x[595] 0
x[596] 0
x[597] 1
x[598] 0
x[599] 0
x[600] 0
x[601] 0
x[602] 1
x[603] 0
x[604] 1
x[605] 1
x[606] 0
x[607] 1
x[608] 0
x[609] 0
x[610] 0
x[611] 0
x[612] 1
x[613] 1
x[614] 0
x[615] 1
x[616] 1
x[617] 1
x[618] 0
x[619] 0
x[620] 1
x[621] 1
x[622] 0
x[623] 0
x[624] 0
x[625] 1
x[626] 0
x[627] 1
x[628] 1
x[629] 0
x[630] 0
x[631] 0
x[632] 1
x[633] 0
x[634] 1
x[635] 1
x[636] 1
x[637] 0
x[638] 0
x[639] 0
x[640] 0
x[641] 0
x[642] 1
x[643] 0
x[644] 0
x[645] 1
x[646] 0
x[647] 0
x[648] 0
x[649] 1
x[650] 0
x[651] 0
x[652] 1
x[653] 1
x[654] 1
x[655] 0
x[656] 0
x[657] 1
x[658] 1
x[659] 1
x[660] 1
x[661] 0
x[662] 1
x[663] 1
x[664] 0
x[665] 0
x[666] 0
x[667] 0
x[668] 0
x[669] 1
x[670] 0
x[671] 1
x[672] 0
x[673] 1
x[674] 1
x[675] 0
x[676] 0
x[677] 0
x[678] 1
x[679] 0
x[680] 0
x[681] 0
x[682] 1
x[683] 0
x[684] 1
x[685] 1
x[686] 0
x[687] 1
x[688] 0
x[689] 0
x[690] 0
x[691] 1
x[692] 0
x[693] 0
x[694] 0
x[695] 1
x[696] 1
x[697] 0
x[698] 0
x[699] 0
x[700] 1
x[701] 0
x[702] 0
x[703] 1
x[704] 0
x[705] 1
x[706] 0
x[707] 1
x[708] 0
x[709] 1
x[710] 0
x[711] 0
x[712] 0
x[713] 1
x[714] 1
x[715] 1
x[716] 1
x[717] 1
x[718] 0
x[719] 0
x[720] 1
x[721] 1
x[722] 0
x[723] 1
x[724] 1
x[725] 0
x[726] 0
x[727] 0
x[728] 0
x[729] 0
x[730] 1
x[731] 0
x[732] 0
x[733] 0
x[734] 0
x[735] 0
x[736] 0
x[737] 0
x[738] 1
x[739] 1
x[740] 0
x[741] 1
x[742] 1
x[743] 1
x[744] 0
x[745] 0
x[746] 1
x[747] 1
x[748] 1
x[749] 0
x[750] 0
x[751] 0
x[752] 0
x[753] 1
x[754] 0
x[755] 1
x[756] 0
x[757] 1
x[758] 0
x[759] 1
x[760] 0
x[761] 1
x[762] 0
x[763] 0
x[764] 0
x[765] 0
x[766] 1
x[767] 0
x[768] 1
x[769] 0
x[770] 1
x[771] 1
x[772] 1
x[773] 1
x[774] 1
x[775] 1
x[776] 0
x[777] 0
x[778] 0
x[779] 1
x[780] 1
x[781] 0
x[782] 0
x[783] 0
x[784] 0
x[785] 1
x[786] 1
x[787] 0
x[788] 0
x[789] 0
x[790] 1
x[791] 1
x[792] 0
x[793] 1
x[794] 0
x[795] 0
x[796] 1
x[797] 1
x[798] 0
x[799] 1
x[800] 1
x[801] 1
x[802] 1
x[803] 0
x[804] 0
x[805] 1
x[806] 1
x[807] 1
x[808] 0
x[809] 1
x[810] 0
x[811] 1
x[812] 0
x[813] 0
x[814] 0
x[815] 1
x[816] 0
x[817] 1
x[818] 1
x[819] 1
x[820] 1
x[821] 0
x[822] 0
x[823] 1
x[824] 1
x[825] 1
x[826] 0
x[827] 0
x[828] 1
x[829] 1
x[830] 0
x[831] 1
x[832] 1
x[833] 1
x[834] 0
x[835] 0
x[836] 1
x[837] 1
x[838] 1
x[839] 1
x[840] 0
x[841] 0
x[842] 1
x[843] 0
x[844] 0
x[845] 0
x[846] 0
x[847] 0
x[848] 0
x[849] 0
x[850] 0
x[851] 1
x[852] 1
x[853] 1
x[854] 0
x[855] 1
x[856] 0
x[857] 1
x[858] 0
x[859] 1
x[860] 0
x[861] 0
x[862] 1
x[863] 0
x[864] 0
x[865] 0
x[866] 0
x[867] 1
x[868] 0
x[869] 1
x[870] 0
x[871] 1
x[872] 1
x[873] 1
x[874] 1
x[875] 0
x[876] 1
x[877] 0
x[878] 1
x[879] 0
x[880] 0
x[881] 0
x[882] 0
x[883] 0
x[884] 0
x[885] 0
x[886] 0
x[887] 1
x[888] 1
x[889] 1
x[890] 1
x[891] 1
x[892] 0
x[893] 0
x[894] 0
x[895] 0
x[896] 1
x[897] 1
x[898] 1
x[899] 0
x[900] 1
x[901] 0
x[902] 0
x[903] 1
x[904] 0
x[905] 0
x[906] 1
x[907] 1
x[908] 1
x[909] 1
x[910] 0
x[911] 1
x[912] 1
x[913] 1
x[914] 1
x[915] 1
x[916] 1
x[917] 0
x[918] 0
x[919] 0
x[920] 1
x[921] 0
x[922] 1
x[923] 0
x[924] 1
x[925] 1
x[926] 0
x[927] 0
x[928] 1
x[929] 0
x[930] 0
x[931] 0
x[932] 0
x[933] 0
x[934] 1
x[935] 0
x[936] 1
x[937] 0
x[938] 1
x[939] 0
x[940] 0
x[941] 0
x[942] 1
x[943] 0
x[944] 1
x[945] 0
x[946] 1
x[947] 1
x[948] 1
x[949] 1
x[950] 0
x[951] 1
x[952] 1
x[953] 0
x[954] 0
x[955] 1
x[956] 1
x[957] 0
x[958] 1
x[959] 0
x[960] 1
x[961] 0
x[962] 1
x[963] 0
x[964] 1
x[965] 0
x[966] 1
x[967] 0
x[968] 0
x[969] 0
x[970] 0
x[971] 1
x[972] 1
x[973] 0
x[974] 0
x[975] 0
x[976] 0
x[977] 0
x[978] 1
x[979] 1
x[980] 0
x[981] 1
x[982] 0
x[983] 0
x[984] 1
x[985] 0
x[986] 1
x[987] 0
x[988] 1
x[989] 0
x[990] 1
x[991] 0
x[992] 1
x[993] 0
x[994] 0
x[995] 1
x[996] 1
x[997] 1
x[998] 1
x[999] 0
